This is Ipopt version 3.14.16, running with linear solver MUMPS 5.7.3.

Number of nonzeros in equality constraint Jacobian...:        0
Number of nonzeros in inequality constraint Jacobian.:     1092
Number of nonzeros in Lagrangian Hessian.............:        0

Total number of variables............................:       21
                     variables with only lower bounds:        0
                variables with lower and upper bounds:       21
                     variables with only upper bounds:        0
Total number of equality constraints.................:        0
Total number of inequality constraints...............:       52
        inequality constraints with only lower bounds:        0
   inequality constraints with lower and upper bounds:        0
        inequality constraints with only upper bounds:       52

iter    objective    inf_pr   inf_du lg(mu)  ||d||  lg(rg) alpha_du alpha_pr  ls
   0  1.6520593e-01 0.00e+00 7.45e-01   0.0 0.00e+00    -  0.00e+00 0.00e+00   0
   1  1.6475976e-01 0.00e+00 1.40e-01  -5.9 1.32e-02    -  8.76e-01 1.00e+00h  1
   2  1.6412221e-01 0.00e+00 3.37e-02  -6.8 1.60e-02    -  9.54e-01 1.00e+00h  1
   3  1.5425189e-01 0.00e+00 3.63e-02  -3.6 2.59e-01    -  9.67e-01 1.00e+00h  1
   4  1.4251512e-01 0.00e+00 2.51e-02  -4.3 3.25e-01    -  1.00e+00 1.00e+00h  1
   5  4.2700193e-02 0.00e+00 2.99e-01  -2.9 5.94e+01    -  7.70e-01 5.49e-02f  1
   6  1.6192875e-01 0.00e+00 3.90e-01  -2.8 4.71e+00    -  8.77e-02 1.00e+00H  1
   7  1.2059242e-01 0.00e+00 6.52e+00  -3.0 9.11e+00    -  8.18e-01 1.80e-01f  1
   8  1.6971416e-01 0.00e+00 2.75e-01  -1.6 5.16e+01    -  4.18e-02 4.68e-02f  1
   9  1.6917970e-01 0.00e+00 5.65e-02  -2.8 7.79e-01    -  9.52e-01 1.00e+00h  1
iter    objective    inf_pr   inf_du lg(mu)  ||d||  lg(rg) alpha_du alpha_pr  ls
  10  1.6885852e-01 0.00e+00 1.98e-02  -2.8 3.75e-02    -  1.00e+00 1.00e+00h  1
  11  1.5722478e-01 0.00e+00 9.01e-03  -2.8 2.86e-01    -  1.00e+00 1.00e+00h  1
  12  6.6818182e-02 0.00e+00 1.24e-02  -2.8 6.22e+00    -  2.29e-01 4.59e-01f  1
  13  7.3929596e-02 0.00e+00 9.69e-03  -2.7 5.48e-01    -  1.00e+00 1.00e+00f  1
  14  3.3051200e-02 0.00e+00 7.88e-02  -3.3 2.06e+00    -  8.42e-01 1.00e+00h  1
  15  1.2781563e-02 0.00e+00 7.19e-03  -3.5 1.61e+00    -  1.00e+00 1.00e+00h  1
  16  7.7648159e-03 2.14e-02 8.05e-03  -3.8 5.95e-01    -  1.00e+00 1.00e+00h  1
  17  8.0885249e-03 0.00e+00 5.94e-03  -3.9 1.15e-01    -  9.90e-01 1.00e+00h  1
  18  6.9298847e-03 0.00e+00 3.66e-03  -3.9 2.83e-01    -  1.00e+00 9.01e-01H  1
  19  6.0700319e-03 1.42e-03 1.59e-03  -4.1 8.05e-02    -  1.00e+00 9.75e-01h  1
iter    objective    inf_pr   inf_du lg(mu)  ||d||  lg(rg) alpha_du alpha_pr  ls
  20  5.9267893e-03 0.00e+00 6.83e-04  -4.7 3.17e-02    -  1.00e+00 1.00e+00h  1

Number of Iterations....: 20

                                   (scaled)                 (unscaled)
Objective...............:   5.9267892528302732e-03    5.9267892528302732e-03
Dual infeasibility......:   6.8298808033378166e-04    6.8298808033378166e-04
Constraint violation....:   0.0000000000000000e+00    0.0000000000000000e+00
Variable bound violation:   0.0000000000000000e+00    0.0000000000000000e+00
Complementarity.........:   3.0195179633644529e-05    3.0195179633644529e-05
Overall NLP error.......:   6.8298808033378166e-04    6.8298808033378166e-04


Number of objective function evaluations             = 24
Number of objective gradient evaluations             = 21
Number of equality constraint evaluations            = 0
Number of inequality constraint evaluations          = 24
Number of equality constraint Jacobian evaluations   = 0
Number of inequality constraint Jacobian evaluations = 21
Number of Lagrangian Hessian evaluations             = 0
Total seconds in IPOPT                               = 16.312

EXIT: Optimal Solution Found.
